VER
4

OBJSENSE
MIN

QCECONES
1 2
2
8 8
1


VAR
38 1
F 38

CON
2156 4
@0:SVECQCE 2081
SVECQE 38
SVECPSD 36
L= 1

OBJACOORD
2
0 1.0
1 1.0

ACOORD
90
0 0 1.0
1 2 1.0
37 3 1.0
45 4 1.0
137 5 1.0
145 6 1.0
153 7 1.0
301 8 1.0
309 9 1.0
317 10 1.0
325 11 1.0
529 12 1.0
537 13 1.0
545 14 1.0
553 15 1.0
561 16 1.0
821 17 1.0
829 18 1.0
837 19 1.0
845 20 1.0
853 21 1.0
861 22 1.0
1177 23 1.0
1185 24 1.0
1193 25 1.0
1201 26 1.0
1209 27 1.0
1217 28 1.0
1225 29 1.0
1597 30 1.0
1605 31 1.0
1613 32 1.0
1621 33 1.0
1629 34 1.0
1637 35 1.0
1645 36 1.0
1653 37 1.0
2081 1 1.0
2083 2 1.0
2083 4 1.0
2083 7 1.0
2083 11 1.0
2083 16 1.0
2083 22 1.0
2083 29 1.0
2083 37 1.0
2119 2 1.0
2120 3 1.0
2121 4 1.0
2122 5 1.0
2123 6 1.0
2124 7 1.0
2125 8 1.0
2126 9 1.0
2127 10 1.0
2128 11 1.0
2129 12 1.0
2130 13 1.0
2131 14 1.0
2132 15 1.0
2133 16 1.0
2134 17 1.0
2135 18 1.0
2136 19 1.0
2137 20 1.0
2138 21 1.0
2139 22 1.0
2140 23 1.0
2141 24 1.0
2142 25 1.0
2143 26 1.0
2144 27 1.0
2145 28 1.0
2146 29 1.0
2147 30 1.0
2148 31 1.0
2149 32 1.0
2150 33 1.0
2151 34 1.0
2152 35 1.0
2153 36 1.0
2154 37 1.0
2155 2 1.0
2155 4 1.0
2155 7 1.0
2155 11 1.0
2155 16 1.0
2155 22 1.0
2155 29 1.0
2155 37 1.0

BCOORD
2
2082 -1.0
2155 1.0
